p tw 169 30421 2 
1 3 
1 4 
1 5 
1 6 
1 7 
1 8 
1 9 
1 10 
1 11 
1 12 
1 13 
1 14 
1 26 
1 27 
1 38 
1 40 
1 50 
1 53 
1 62 
1 66 
1 74 
1 79 
1 86 
1 92 
1 98 
1 105 
1 110 
1 118 
1 122 
1 131 
1 134 
1 144 
1 146 
1 157 
1 158 
2 3 
2 4 
2 5 
2 6 
2 7 
2 8 
2 9 
2 10 
2 11 
2 12 
2 13 
2 14 
2 15 
2 28 
2 39 
2 41 
2 51 
2 54 
2 63 
2 67 
2 75 
2 80 
2 87 
2 93 
2 99 
2 106 
2 111 
2 119 
2 123 
2 132 
2 135 
2 145 
2 147 
2 158 
2 159 
3 4 
3 5 
3 6 
3 7 
3 8 
3 9 
3 10 
3 11 
3 12 
3 13 
3 15 
3 16 
3 27 
3 29 
3 42 
3 52 
3 55 
3 64 
3 68 
3 76 
3 81 
3 88 
3 94 
3 100 
3 107 
3 112 
3 120 
3 124 
3 133 
3 136 
3 146 
3 148 
3 159 
3 160 
4 5 
4 6 
4 7 
4 8 
4 9 
4 10 
4 11 
4 12 
4 13 
4 16 
4 17 
4 28 
4 30 
4 40 
4 43 
4 56 
4 65 
4 69 
4 77 
4 82 
4 89 
4 95 
4 101 
4 108 
4 113 
4 121 
4 125 
4 134 
4 137 
4 147 
4 149 
4 160 
4 161 
5 6 
5 7 
5 8 
5 9 
5 10 
5 11 
5 12 
5 13 
5 17 
5 18 
5 29 
5 31 
5 41 
5 44 
5 53 
5 57 
5 70 
5 78 
5 83 
5 90 
5 96 
5 102 
5 109 
5 114 
5 122 
5 126 
5 135 
5 138 
5 148 
5 150 
5 161 
5 162 
6 7 
6 8 
6 9 
6 10 
6 11 
6 12 
6 13 
6 18 
6 19 
6 30 
6 32 
6 42 
6 45 
6 54 
6 58 
6 66 
6 71 
6 84 
6 91 
6 97 
6 103 
6 110 
6 115 
6 123 
6 127 
6 136 
6 139 
6 149 
6 151 
6 162 
6 163 
7 8 
7 9 
7 10 
7 11 
7 12 
7 13 
7 19 
7 20 
7 31 
7 33 
7 43 
7 46 
7 55 
7 59 
7 67 
7 72 
7 79 
7 85 
7 98 
7 104 
7 111 
7 116 
7 124 
7 128 
7 137 
7 140 
7 150 
7 152 
7 163 
7 164 
8 9 
8 10 
8 11 
8 12 
8 13 
8 20 
8 21 
8 32 
8 34 
8 44 
8 47 
8 56 
8 60 
8 68 
8 73 
8 80 
8 86 
8 92 
8 99 
8 112 
8 117 
8 125 
8 129 
8 138 
8 141 
8 151 
8 153 
8 164 
8 165 
9 10 
9 11 
9 12 
9 13 
9 21 
9 22 
9 33 
9 35 
9 45 
9 48 
9 57 
9 61 
9 69 
9 74 
9 81 
9 87 
9 93 
9 100 
9 105 
9 113 
9 126 
9 130 
9 139 
9 142 
9 152 
9 154 
9 165 
9 166 
10 11 
10 12 
10 13 
10 22 
10 23 
10 34 
10 36 
10 46 
10 49 
10 58 
10 62 
10 70 
10 75 
10 82 
10 88 
10 94 
10 101 
10 106 
10 114 
10 118 
10 127 
10 140 
10 143 
10 153 
10 155 
10 166 
10 167 
11 12 
11 13 
11 23 
11 24 
11 35 
11 37 
11 47 
11 50 
11 59 
11 63 
11 71 
11 76 
11 83 
11 89 
11 95 
11 102 
11 107 
11 115 
11 119 
11 128 
11 131 
11 141 
11 154 
11 156 
11 167 
11 168 
12 13 
12 24 
12 25 
12 36 
12 38 
12 48 
12 51 
12 60 
12 64 
12 72 
12 77 
12 84 
12 90 
12 96 
12 103 
12 108 
12 116 
12 120 
12 129 
12 132 
12 142 
12 144 
12 155 
12 168 
12 169 
13 25 
13 26 
13 37 
13 39 
13 49 
13 52 
13 61 
13 65 
13 73 
13 78 
13 85 
13 91 
13 97 
13 104 
13 109 
13 117 
13 121 
13 130 
13 133 
13 143 
13 145 
13 156 
13 157 
13 169 
14 15 
14 16 
14 17 
14 18 
14 19 
14 20 
14 21 
14 22 
14 23 
14 24 
14 25 
14 26 
14 27 
14 39 
14 40 
14 51 
14 53 
14 63 
14 66 
14 75 
14 79 
14 87 
14 92 
14 99 
14 105 
14 111 
14 118 
14 123 
14 131 
14 135 
14 144 
14 147 
14 157 
14 159 
15 16 
15 17 
15 18 
15 19 
15 20 
15 21 
15 22 
15 23 
15 24 
15 25 
15 26 
15 27 
15 28 
15 41 
15 52 
15 54 
15 64 
15 67 
15 76 
15 80 
15 88 
15 93 
15 100 
15 106 
15 112 
15 119 
15 124 
15 132 
15 136 
15 145 
15 148 
15 158 
15 160 
16 17 
16 18 
16 19 
16 20 
16 21 
16 22 
16 23 
16 24 
16 25 
16 26 
16 28 
16 29 
16 40 
16 42 
16 55 
16 65 
16 68 
16 77 
16 81 
16 89 
16 94 
16 101 
16 107 
16 113 
16 120 
16 125 
16 133 
16 137 
16 146 
16 149 
16 159 
16 161 
17 18 
17 19 
17 20 
17 21 
17 22 
17 23 
17 24 
17 25 
17 26 
17 29 
17 30 
17 41 
17 43 
17 53 
17 56 
17 69 
17 78 
17 82 
17 90 
17 95 
17 102 
17 108 
17 114 
17 121 
17 126 
17 134 
17 138 
17 147 
17 150 
17 160 
17 162 
18 19 
18 20 
18 21 
18 22 
18 23 
18 24 
18 25 
18 26 
18 30 
18 31 
18 42 
18 44 
18 54 
18 57 
18 66 
18 70 
18 83 
18 91 
18 96 
18 103 
18 109 
18 115 
18 122 
18 127 
18 135 
18 139 
18 148 
18 151 
18 161 
18 163 
19 20 
19 21 
19 22 
19 23 
19 24 
19 25 
19 26 
19 31 
19 32 
19 43 
19 45 
19 55 
19 58 
19 67 
19 71 
19 79 
19 84 
19 97 
19 104 
19 110 
19 116 
19 123 
19 128 
19 136 
19 140 
19 149 
19 152 
19 162 
19 164 
20 21 
20 22 
20 23 
20 24 
20 25 
20 26 
20 32 
20 33 
20 44 
20 46 
20 56 
20 59 
20 68 
20 72 
20 80 
20 85 
20 92 
20 98 
20 111 
20 117 
20 124 
20 129 
20 137 
20 141 
20 150 
20 153 
20 163 
20 165 
21 22 
21 23 
21 24 
21 25 
21 26 
21 33 
21 34 
21 45 
21 47 
21 57 
21 60 
21 69 
21 73 
21 81 
21 86 
21 93 
21 99 
21 105 
21 112 
21 125 
21 130 
21 138 
21 142 
21 151 
21 154 
21 164 
21 166 
22 23 
22 24 
22 25 
22 26 
22 34 
22 35 
22 46 
22 48 
22 58 
22 61 
22 70 
22 74 
22 82 
22 87 
22 94 
22 100 
22 106 
22 113 
22 118 
22 126 
22 139 
22 143 
22 152 
22 155 
22 165 
22 167 
23 24 
23 25 
23 26 
23 35 
23 36 
23 47 
23 49 
23 59 
23 62 
23 71 
23 75 
23 83 
23 88 
23 95 
23 101 
23 107 
23 114 
23 119 
23 127 
23 131 
23 140 
23 153 
23 156 
23 166 
23 168 
24 25 
24 26 
24 36 
24 37 
24 48 
24 50 
24 60 
24 63 
24 72 
24 76 
24 84 
24 89 
24 96 
24 102 
24 108 
24 115 
24 120 
24 128 
24 132 
24 141 
24 144 
24 154 
24 167 
24 169 
25 26 
25 37 
25 38 
25 49 
25 51 
25 61 
25 64 
25 73 
25 77 
25 85 
25 90 
25 97 
25 103 
25 109 
25 116 
25 121 
25 129 
25 133 
25 142 
25 145 
25 155 
25 157 
25 168 
26 38 
26 39 
26 50 
26 52 
26 62 
26 65 
26 74 
26 78 
26 86 
26 91 
26 98 
26 104 
26 110 
26 117 
26 122 
26 130 
26 134 
26 143 
26 146 
26 156 
26 158 
26 169 
27 28 
27 29 
27 30 
27 31 
27 32 
27 33 
27 34 
27 35 
27 36 
27 37 
27 38 
27 39 
27 40 
27 52 
27 53 
27 64 
27 66 
27 76 
27 79 
27 88 
27 92 
27 100 
27 105 
27 112 
27 118 
27 124 
27 131 
27 136 
27 144 
27 148 
27 157 
27 160 
28 29 
28 30 
28 31 
28 32 
28 33 
28 34 
28 35 
28 36 
28 37 
28 38 
28 39 
28 40 
28 41 
28 54 
28 65 
28 67 
28 77 
28 80 
28 89 
28 93 
28 101 
28 106 
28 113 
28 119 
28 125 
28 132 
28 137 
28 145 
28 149 
28 158 
28 161 
29 30 
29 31 
29 32 
29 33 
29 34 
29 35 
29 36 
29 37 
29 38 
29 39 
29 41 
29 42 
29 53 
29 55 
29 68 
29 78 
29 81 
29 90 
29 94 
29 102 
29 107 
29 114 
29 120 
29 126 
29 133 
29 138 
29 146 
29 150 
29 159 
29 162 
30 31 
30 32 
30 33 
30 34 
30 35 
30 36 
30 37 
30 38 
30 39 
30 42 
30 43 
30 54 
30 56 
30 66 
30 69 
30 82 
30 91 
30 95 
30 103 
30 108 
30 115 
30 121 
30 127 
30 134 
30 139 
30 147 
30 151 
30 160 
30 163 
31 32 
31 33 
31 34 
31 35 
31 36 
31 37 
31 38 
31 39 
31 43 
31 44 
31 55 
31 57 
31 67 
31 70 
31 79 
31 83 
31 96 
31 104 
31 109 
31 116 
31 122 
31 128 
31 135 
31 140 
31 148 
31 152 
31 161 
31 164 
32 33 
32 34 
32 35 
32 36 
32 37 
32 38 
32 39 
32 44 
32 45 
32 56 
32 58 
32 68 
32 71 
32 80 
32 84 
32 92 
32 97 
32 110 
32 117 
32 123 
32 129 
32 136 
32 141 
32 149 
32 153 
32 162 
32 165 
33 34 
33 35 
33 36 
33 37 
33 38 
33 39 
33 45 
33 46 
33 57 
33 59 
33 69 
33 72 
33 81 
33 85 
33 93 
33 98 
33 105 
33 111 
33 124 
33 130 
33 137 
33 142 
33 150 
33 154 
33 163 
33 166 
34 35 
34 36 
34 37 
34 38 
34 39 
34 46 
34 47 
34 58 
34 60 
34 70 
34 73 
34 82 
34 86 
34 94 
34 99 
34 106 
34 112 
34 118 
34 125 
34 138 
34 143 
34 151 
34 155 
34 164 
34 167 
35 36 
35 37 
35 38 
35 39 
35 47 
35 48 
35 59 
35 61 
35 71 
35 74 
35 83 
35 87 
35 95 
35 100 
35 107 
35 113 
35 119 
35 126 
35 131 
35 139 
35 152 
35 156 
35 165 
35 168 
36 37 
36 38 
36 39 
36 48 
36 49 
36 60 
36 62 
36 72 
36 75 
36 84 
36 88 
36 96 
36 101 
36 108 
36 114 
36 120 
36 127 
36 132 
36 140 
36 144 
36 153 
36 166 
36 169 
37 38 
37 39 
37 49 
37 50 
37 61 
37 63 
37 73 
37 76 
37 85 
37 89 
37 97 
37 102 
37 109 
37 115 
37 121 
37 128 
37 133 
37 141 
37 145 
37 154 
37 157 
37 167 
38 39 
38 50 
38 51 
38 62 
38 64 
38 74 
38 77 
38 86 
38 90 
38 98 
38 103 
38 110 
38 116 
38 122 
38 129 
38 134 
38 142 
38 146 
38 155 
38 158 
38 168 
39 51 
39 52 
39 63 
39 65 
39 75 
39 78 
39 87 
39 91 
39 99 
39 104 
39 111 
39 117 
39 123 
39 130 
39 135 
39 143 
39 147 
39 156 
39 159 
39 169 
40 41 
40 42 
40 43 
40 44 
40 45 
40 46 
40 47 
40 48 
40 49 
40 50 
40 51 
40 52 
40 53 
40 65 
40 66 
40 77 
40 79 
40 89 
40 92 
40 101 
40 105 
40 113 
40 118 
40 125 
40 131 
40 137 
40 144 
40 149 
40 157 
40 161 
41 42 
41 43 
41 44 
41 45 
41 46 
41 47 
41 48 
41 49 
41 50 
41 51 
41 52 
41 53 
41 54 
41 67 
41 78 
41 80 
41 90 
41 93 
41 102 
41 106 
41 114 
41 119 
41 126 
41 132 
41 138 
41 145 
41 150 
41 158 
41 162 
42 43 
42 44 
42 45 
42 46 
42 47 
42 48 
42 49 
42 50 
42 51 
42 52 
42 54 
42 55 
42 66 
42 68 
42 81 
42 91 
42 94 
42 103 
42 107 
42 115 
42 120 
42 127 
42 133 
42 139 
42 146 
42 151 
42 159 
42 163 
43 44 
43 45 
43 46 
43 47 
43 48 
43 49 
43 50 
43 51 
43 52 
43 55 
43 56 
43 67 
43 69 
43 79 
43 82 
43 95 
43 104 
43 108 
43 116 
43 121 
43 128 
43 134 
43 140 
43 147 
43 152 
43 160 
43 164 
44 45 
44 46 
44 47 
44 48 
44 49 
44 50 
44 51 
44 52 
44 56 
44 57 
44 68 
44 70 
44 80 
44 83 
44 92 
44 96 
44 109 
44 117 
44 122 
44 129 
44 135 
44 141 
44 148 
44 153 
44 161 
44 165 
45 46 
45 47 
45 48 
45 49 
45 50 
45 51 
45 52 
45 57 
45 58 
45 69 
45 71 
45 81 
45 84 
45 93 
45 97 
45 105 
45 110 
45 123 
45 130 
45 136 
45 142 
45 149 
45 154 
45 162 
45 166 
46 47 
46 48 
46 49 
46 50 
46 51 
46 52 
46 58 
46 59 
46 70 
46 72 
46 82 
46 85 
46 94 
46 98 
46 106 
46 111 
46 118 
46 124 
46 137 
46 143 
46 150 
46 155 
46 163 
46 167 
47 48 
47 49 
47 50 
47 51 
47 52 
47 59 
47 60 
47 71 
47 73 
47 83 
47 86 
47 95 
47 99 
47 107 
47 112 
47 119 
47 125 
47 131 
47 138 
47 151 
47 156 
47 164 
47 168 
48 49 
48 50 
48 51 
48 52 
48 60 
48 61 
48 72 
48 74 
48 84 
48 87 
48 96 
48 100 
48 108 
48 113 
48 120 
48 126 
48 132 
48 139 
48 144 
48 152 
48 165 
48 169 
49 50 
49 51 
49 52 
49 61 
49 62 
49 73 
49 75 
49 85 
49 88 
49 97 
49 101 
49 109 
49 114 
49 121 
49 127 
49 133 
49 140 
49 145 
49 153 
49 157 
49 166 
50 51 
50 52 
50 62 
50 63 
50 74 
50 76 
50 86 
50 89 
50 98 
50 102 
50 110 
50 115 
50 122 
50 128 
50 134 
50 141 
50 146 
50 154 
50 158 
50 167 
51 52 
51 63 
51 64 
51 75 
51 77 
51 87 
51 90 
51 99 
51 103 
51 111 
51 116 
51 123 
51 129 
51 135 
51 142 
51 147 
51 155 
51 159 
51 168 
52 64 
52 65 
52 76 
52 78 
52 88 
52 91 
52 100 
52 104 
52 112 
52 117 
52 124 
52 130 
52 136 
52 143 
52 148 
52 156 
52 160 
52 169 
53 54 
53 55 
53 56 
53 57 
53 58 
53 59 
53 60 
53 61 
53 62 
53 63 
53 64 
53 65 
53 66 
53 78 
53 79 
53 90 
53 92 
53 102 
53 105 
53 114 
53 118 
53 126 
53 131 
53 138 
53 144 
53 150 
53 157 
53 162 
54 55 
54 56 
54 57 
54 58 
54 59 
54 60 
54 61 
54 62 
54 63 
54 64 
54 65 
54 66 
54 67 
54 80 
54 91 
54 93 
54 103 
54 106 
54 115 
54 119 
54 127 
54 132 
54 139 
54 145 
54 151 
54 158 
54 163 
55 56 
55 57 
55 58 
55 59 
55 60 
55 61 
55 62 
55 63 
55 64 
55 65 
55 67 
55 68 
55 79 
55 81 
55 94 
55 104 
55 107 
55 116 
55 120 
55 128 
55 133 
55 140 
55 146 
55 152 
55 159 
55 164 
56 57 
56 58 
56 59 
56 60 
56 61 
56 62 
56 63 
56 64 
56 65 
56 68 
56 69 
56 80 
56 82 
56 92 
56 95 
56 108 
56 117 
56 121 
56 129 
56 134 
56 141 
56 147 
56 153 
56 160 
56 165 
57 58 
57 59 
57 60 
57 61 
57 62 
57 63 
57 64 
57 65 
57 69 
57 70 
57 81 
57 83 
57 93 
57 96 
57 105 
57 109 
57 122 
57 130 
57 135 
57 142 
57 148 
57 154 
57 161 
57 166 
58 59 
58 60 
58 61 
58 62 
58 63 
58 64 
58 65 
58 70 
58 71 
58 82 
58 84 
58 94 
58 97 
58 106 
58 110 
58 118 
58 123 
58 136 
58 143 
58 149 
58 155 
58 162 
58 167 
59 60 
59 61 
59 62 
59 63 
59 64 
59 65 
59 71 
59 72 
59 83 
59 85 
59 95 
59 98 
59 107 
59 111 
59 119 
59 124 
59 131 
59 137 
59 150 
59 156 
59 163 
59 168 
60 61 
60 62 
60 63 
60 64 
60 65 
60 72 
60 73 
60 84 
60 86 
60 96 
60 99 
60 108 
60 112 
60 120 
60 125 
60 132 
60 138 
60 144 
60 151 
60 164 
60 169 
61 62 
61 63 
61 64 
61 65 
61 73 
61 74 
61 85 
61 87 
61 97 
61 100 
61 109 
61 113 
61 121 
61 126 
61 133 
61 139 
61 145 
61 152 
61 157 
61 165 
62 63 
62 64 
62 65 
62 74 
62 75 
62 86 
62 88 
62 98 
62 101 
62 110 
62 114 
62 122 
62 127 
62 134 
62 140 
62 146 
62 153 
62 158 
62 166 
63 64 
63 65 
63 75 
63 76 
63 87 
63 89 
63 99 
63 102 
63 111 
63 115 
63 123 
63 128 
63 135 
63 141 
63 147 
63 154 
63 159 
63 167 
64 65 
64 76 
64 77 
64 88 
64 90 
64 100 
64 103 
64 112 
64 116 
64 124 
64 129 
64 136 
64 142 
64 148 
64 155 
64 160 
64 168 
65 77 
65 78 
65 89 
65 91 
65 101 
65 104 
65 113 
65 117 
65 125 
65 130 
65 137 
65 143 
65 149 
65 156 
65 161 
65 169 
66 67 
66 68 
66 69 
66 70 
66 71 
66 72 
66 73 
66 74 
66 75 
66 76 
66 77 
66 78 
66 79 
66 91 
66 92 
66 103 
66 105 
66 115 
66 118 
66 127 
66 131 
66 139 
66 144 
66 151 
66 157 
66 163 
67 68 
67 69 
67 70 
67 71 
67 72 
67 73 
67 74 
67 75 
67 76 
67 77 
67 78 
67 79 
67 80 
67 93 
67 104 
67 106 
67 116 
67 119 
67 128 
67 132 
67 140 
67 145 
67 152 
67 158 
67 164 
68 69 
68 70 
68 71 
68 72 
68 73 
68 74 
68 75 
68 76 
68 77 
68 78 
68 80 
68 81 
68 92 
68 94 
68 107 
68 117 
68 120 
68 129 
68 133 
68 141 
68 146 
68 153 
68 159 
68 165 
69 70 
69 71 
69 72 
69 73 
69 74 
69 75 
69 76 
69 77 
69 78 
69 81 
69 82 
69 93 
69 95 
69 105 
69 108 
69 121 
69 130 
69 134 
69 142 
69 147 
69 154 
69 160 
69 166 
70 71 
70 72 
70 73 
70 74 
70 75 
70 76 
70 77 
70 78 
70 82 
70 83 
70 94 
70 96 
70 106 
70 109 
70 118 
70 122 
70 135 
70 143 
70 148 
70 155 
70 161 
70 167 
71 72 
71 73 
71 74 
71 75 
71 76 
71 77 
71 78 
71 83 
71 84 
71 95 
71 97 
71 107 
71 110 
71 119 
71 123 
71 131 
71 136 
71 149 
71 156 
71 162 
71 168 
72 73 
72 74 
72 75 
72 76 
72 77 
72 78 
72 84 
72 85 
72 96 
72 98 
72 108 
72 111 
72 120 
72 124 
72 132 
72 137 
72 144 
72 150 
72 163 
72 169 
73 74 
73 75 
73 76 
73 77 
73 78 
73 85 
73 86 
73 97 
73 99 
73 109 
73 112 
73 121 
73 125 
73 133 
73 138 
73 145 
73 151 
73 157 
73 164 
74 75 
74 76 
74 77 
74 78 
74 86 
74 87 
74 98 
74 100 
74 110 
74 113 
74 122 
74 126 
74 134 
74 139 
74 146 
74 152 
74 158 
74 165 
75 76 
75 77 
75 78 
75 87 
75 88 
75 99 
75 101 
75 111 
75 114 
75 123 
75 127 
75 135 
75 140 
75 147 
75 153 
75 159 
75 166 
76 77 
76 78 
76 88 
76 89 
76 100 
76 102 
76 112 
76 115 
76 124 
76 128 
76 136 
76 141 
76 148 
76 154 
76 160 
76 167 
77 78 
77 89 
77 90 
77 101 
77 103 
77 113 
77 116 
77 125 
77 129 
77 137 
77 142 
77 149 
77 155 
77 161 
77 168 
78 90 
78 91 
78 102 
78 104 
78 114 
78 117 
78 126 
78 130 
78 138 
78 143 
78 150 
78 156 
78 162 
78 169 
79 80 
79 81 
79 82 
79 83 
79 84 
79 85 
79 86 
79 87 
79 88 
79 89 
79 90 
79 91 
79 92 
79 104 
79 105 
79 116 
79 118 
79 128 
79 131 
79 140 
79 144 
79 152 
79 157 
79 164 
80 81 
80 82 
80 83 
80 84 
80 85 
80 86 
80 87 
80 88 
80 89 
80 90 
80 91 
80 92 
80 93 
80 106 
80 117 
80 119 
80 129 
80 132 
80 141 
80 145 
80 153 
80 158 
80 165 
81 82 
81 83 
81 84 
81 85 
81 86 
81 87 
81 88 
81 89 
81 90 
81 91 
81 93 
81 94 
81 105 
81 107 
81 120 
81 130 
81 133 
81 142 
81 146 
81 154 
81 159 
81 166 
82 83 
82 84 
82 85 
82 86 
82 87 
82 88 
82 89 
82 90 
82 91 
82 94 
82 95 
82 106 
82 108 
82 118 
82 121 
82 134 
82 143 
82 147 
82 155 
82 160 
82 167 
83 84 
83 85 
83 86 
83 87 
83 88 
83 89 
83 90 
83 91 
83 95 
83 96 
83 107 
83 109 
83 119 
83 122 
83 131 
83 135 
83 148 
83 156 
83 161 
83 168 
84 85 
84 86 
84 87 
84 88 
84 89 
84 90 
84 91 
84 96 
84 97 
84 108 
84 110 
84 120 
84 123 
84 132 
84 136 
84 144 
84 149 
84 162 
84 169 
85 86 
85 87 
85 88 
85 89 
85 90 
85 91 
85 97 
85 98 
85 109 
85 111 
85 121 
85 124 
85 133 
85 137 
85 145 
85 150 
85 157 
85 163 
86 87 
86 88 
86 89 
86 90 
86 91 
86 98 
86 99 
86 110 
86 112 
86 122 
86 125 
86 134 
86 138 
86 146 
86 151 
86 158 
86 164 
87 88 
87 89 
87 90 
87 91 
87 99 
87 100 
87 111 
87 113 
87 123 
87 126 
87 135 
87 139 
87 147 
87 152 
87 159 
87 165 
88 89 
88 90 
88 91 
88 100 
88 101 
88 112 
88 114 
88 124 
88 127 
88 136 
88 140 
88 148 
88 153 
88 160 
88 166 
89 90 
89 91 
89 101 
89 102 
89 113 
89 115 
89 125 
89 128 
89 137 
89 141 
89 149 
89 154 
89 161 
89 167 
90 91 
90 102 
90 103 
90 114 
90 116 
90 126 
90 129 
90 138 
90 142 
90 150 
90 155 
90 162 
90 168 
91 103 
91 104 
91 115 
91 117 
91 127 
91 130 
91 139 
91 143 
91 151 
91 156 
91 163 
91 169 
92 93 
92 94 
92 95 
92 96 
92 97 
92 98 
92 99 
92 100 
92 101 
92 102 
92 103 
92 104 
92 105 
92 117 
92 118 
92 129 
92 131 
92 141 
92 144 
92 153 
92 157 
92 165 
93 94 
93 95 
93 96 
93 97 
93 98 
93 99 
93 100 
93 101 
93 102 
93 103 
93 104 
93 105 
93 106 
93 119 
93 130 
93 132 
93 142 
93 145 
93 154 
93 158 
93 166 
94 95 
94 96 
94 97 
94 98 
94 99 
94 100 
94 101 
94 102 
94 103 
94 104 
94 106 
94 107 
94 118 
94 120 
94 133 
94 143 
94 146 
94 155 
94 159 
94 167 
95 96 
95 97 
95 98 
95 99 
95 100 
95 101 
95 102 
95 103 
95 104 
95 107 
95 108 
95 119 
95 121 
95 131 
95 134 
95 147 
95 156 
95 160 
95 168 
96 97 
96 98 
96 99 
96 100 
96 101 
96 102 
96 103 
96 104 
96 108 
96 109 
96 120 
96 122 
96 132 
96 135 
96 144 
96 148 
96 161 
96 169 
97 98 
97 99 
97 100 
97 101 
97 102 
97 103 
97 104 
97 109 
97 110 
97 121 
97 123 
97 133 
97 136 
97 145 
97 149 
97 157 
97 162 
98 99 
98 100 
98 101 
98 102 
98 103 
98 104 
98 110 
98 111 
98 122 
98 124 
98 134 
98 137 
98 146 
98 150 
98 158 
98 163 
99 100 
99 101 
99 102 
99 103 
99 104 
99 111 
99 112 
99 123 
99 125 
99 135 
99 138 
99 147 
99 151 
99 159 
99 164 
100 101 
100 102 
100 103 
100 104 
100 112 
100 113 
100 124 
100 126 
100 136 
100 139 
100 148 
100 152 
100 160 
100 165 
101 102 
101 103 
101 104 
101 113 
101 114 
101 125 
101 127 
101 137 
101 140 
101 149 
101 153 
101 161 
101 166 
102 103 
102 104 
102 114 
102 115 
102 126 
102 128 
102 138 
102 141 
102 150 
102 154 
102 162 
102 167 
103 104 
103 115 
103 116 
103 127 
103 129 
103 139 
103 142 
103 151 
103 155 
103 163 
103 168 
104 116 
104 117 
104 128 
104 130 
104 140 
104 143 
104 152 
104 156 
104 164 
104 169 
105 106 
105 107 
105 108 
105 109 
105 110 
105 111 
105 112 
105 113 
105 114 
105 115 
105 116 
105 117 
105 118 
105 130 
105 131 
105 142 
105 144 
105 154 
105 157 
105 166 
106 107 
106 108 
106 109 
106 110 
106 111 
106 112 
106 113 
106 114 
106 115 
106 116 
106 117 
106 118 
106 119 
106 132 
106 143 
106 145 
106 155 
106 158 
106 167 
107 108 
107 109 
107 110 
107 111 
107 112 
107 113 
107 114 
107 115 
107 116 
107 117 
107 119 
107 120 
107 131 
107 133 
107 146 
107 156 
107 159 
107 168 
108 109 
108 110 
108 111 
108 112 
108 113 
108 114 
108 115 
108 116 
108 117 
108 120 
108 121 
108 132 
108 134 
108 144 
108 147 
108 160 
108 169 
109 110 
109 111 
109 112 
109 113 
109 114 
109 115 
109 116 
109 117 
109 121 
109 122 
109 133 
109 135 
109 145 
109 148 
109 157 
109 161 
110 111 
110 112 
110 113 
110 114 
110 115 
110 116 
110 117 
110 122 
110 123 
110 134 
110 136 
110 146 
110 149 
110 158 
110 162 
111 112 
111 113 
111 114 
111 115 
111 116 
111 117 
111 123 
111 124 
111 135 
111 137 
111 147 
111 150 
111 159 
111 163 
112 113 
112 114 
112 115 
112 116 
112 117 
112 124 
112 125 
112 136 
112 138 
112 148 
112 151 
112 160 
112 164 
113 114 
113 115 
113 116 
113 117 
113 125 
113 126 
113 137 
113 139 
113 149 
113 152 
113 161 
113 165 
114 115 
114 116 
114 117 
114 126 
114 127 
114 138 
114 140 
114 150 
114 153 
114 162 
114 166 
115 116 
115 117 
115 127 
115 128 
115 139 
115 141 
115 151 
115 154 
115 163 
115 167 
116 117 
116 128 
116 129 
116 140 
116 142 
116 152 
116 155 
116 164 
116 168 
117 129 
117 130 
117 141 
117 143 
117 153 
117 156 
117 165 
117 169 
118 119 
118 120 
118 121 
118 122 
118 123 
118 124 
118 125 
118 126 
118 127 
118 128 
118 129 
118 130 
118 131 
118 143 
118 144 
118 155 
118 157 
118 167 
119 120 
119 121 
119 122 
119 123 
119 124 
119 125 
119 126 
119 127 
119 128 
119 129 
119 130 
119 131 
119 132 
119 145 
119 156 
119 158 
119 168 
120 121 
120 122 
120 123 
120 124 
120 125 
120 126 
120 127 
120 128 
120 129 
120 130 
120 132 
120 133 
120 144 
120 146 
120 159 
120 169 
121 122 
121 123 
121 124 
121 125 
121 126 
121 127 
121 128 
121 129 
121 130 
121 133 
121 134 
121 145 
121 147 
121 157 
121 160 
122 123 
122 124 
122 125 
122 126 
122 127 
122 128 
122 129 
122 130 
122 134 
122 135 
122 146 
122 148 
122 158 
122 161 
123 124 
123 125 
123 126 
123 127 
123 128 
123 129 
123 130 
123 135 
123 136 
123 147 
123 149 
123 159 
123 162 
124 125 
124 126 
124 127 
124 128 
124 129 
124 130 
124 136 
124 137 
124 148 
124 150 
124 160 
124 163 
125 126 
125 127 
125 128 
125 129 
125 130 
125 137 
125 138 
125 149 
125 151 
125 161 
125 164 
126 127 
126 128 
126 129 
126 130 
126 138 
126 139 
126 150 
126 152 
126 162 
126 165 
127 128 
127 129 
127 130 
127 139 
127 140 
127 151 
127 153 
127 163 
127 166 
128 129 
128 130 
128 140 
128 141 
128 152 
128 154 
128 164 
128 167 
129 130 
129 141 
129 142 
129 153 
129 155 
129 165 
129 168 
130 142 
130 143 
130 154 
130 156 
130 166 
130 169 
131 132 
131 133 
131 134 
131 135 
131 136 
131 137 
131 138 
131 139 
131 140 
131 141 
131 142 
131 143 
131 144 
131 156 
131 157 
131 168 
132 133 
132 134 
132 135 
132 136 
132 137 
132 138 
132 139 
132 140 
132 141 
132 142 
132 143 
132 144 
132 145 
132 158 
132 169 
133 134 
133 135 
133 136 
133 137 
133 138 
133 139 
133 140 
133 141 
133 142 
133 143 
133 145 
133 146 
133 157 
133 159 
134 135 
134 136 
134 137 
134 138 
134 139 
134 140 
134 141 
134 142 
134 143 
134 146 
134 147 
134 158 
134 160 
135 136 
135 137 
135 138 
135 139 
135 140 
135 141 
135 142 
135 143 
135 147 
135 148 
135 159 
135 161 
136 137 
136 138 
136 139 
136 140 
136 141 
136 142 
136 143 
136 148 
136 149 
136 160 
136 162 
137 138 
137 139 
137 140 
137 141 
137 142 
137 143 
137 149 
137 150 
137 161 
137 163 
138 139 
138 140 
138 141 
138 142 
138 143 
138 150 
138 151 
138 162 
138 164 
139 140 
139 141 
139 142 
139 143 
139 151 
139 152 
139 163 
139 165 
140 141 
140 142 
140 143 
140 152 
140 153 
140 164 
140 166 
141 142 
141 143 
141 153 
141 154 
141 165 
141 167 
142 143 
142 154 
142 155 
142 166 
142 168 
143 155 
143 156 
143 167 
143 169 
144 145 
144 146 
144 147 
144 148 
144 149 
144 150 
144 151 
144 152 
144 153 
144 154 
144 155 
144 156 
144 157 
144 169 
145 146 
145 147 
145 148 
145 149 
145 150 
145 151 
145 152 
145 153 
145 154 
145 155 
145 156 
145 157 
145 158 
146 147 
146 148 
146 149 
146 150 
146 151 
146 152 
146 153 
146 154 
146 155 
146 156 
146 158 
146 159 
147 148 
147 149 
147 150 
147 151 
147 152 
147 153 
147 154 
147 155 
147 156 
147 159 
147 160 
148 149 
148 150 
148 151 
148 152 
148 153 
148 154 
148 155 
148 156 
148 160 
148 161 
149 150 
149 151 
149 152 
149 153 
149 154 
149 155 
149 156 
149 161 
149 162 
150 151 
150 152 
150 153 
150 154 
150 155 
150 156 
150 162 
150 163 
151 152 
151 153 
151 154 
151 155 
151 156 
151 163 
151 164 
152 153 
152 154 
152 155 
152 156 
152 164 
152 165 
153 154 
153 155 
153 156 
153 165 
153 166 
154 155 
154 156 
154 166 
154 167 
155 156 
155 167 
155 168 
156 168 
156 169 
157 158 
157 159 
157 160 
157 161 
157 162 
157 163 
157 164 
157 165 
157 166 
157 167 
157 168 
157 169 
158 159 
158 160 
158 161 
158 162 
158 163 
158 164 
158 165 
158 166 
158 167 
158 168 
158 169 
159 160 
159 161 
159 162 
159 163 
159 164 
159 165 
159 166 
159 167 
159 168 
159 169 
160 161 
160 162 
160 163 
160 164 
160 165 
160 166 
160 167 
160 168 
160 169 
161 162 
161 163 
161 164 
161 165 
161 166 
161 167 
161 168 
161 169 
162 163 
162 164 
162 165 
162 166 
162 167 
162 168 
162 169 
163 164 
163 165 
163 166 
163 167 
163 168 
163 169 
164 165 
164 166 
164 167 
164 168 
164 169 
165 166 
165 167 
165 168 
165 169 
166 167 
166 168 
166 169 
167 168 
167 169 
168 169 
